NAME: debruijn_embed_k8_m2_n256
TYPE: TSP
DIMENSION: 256
EDGE_WEIGHT_TYPE: EUC_2D
NODE_COORD_SECTION
1 100.000000 0.000000
2 99.969882 2.454123
3 99.879546 4.906767
4 99.729046 7.356456
5 99.518473 9.801714
6 99.247953 12.241068
7 98.917651 14.673047
8 98.527764 17.096189
9 98.078528 19.509032
10 97.570213 21.910124
11 97.003125 24.298018
12 96.377607 26.671276
13 95.694034 29.028468
14 94.952818 31.368174
15 94.154407 33.688985
16 93.299280 35.989504
17 92.387953 38.268343
18 91.420976 40.524131
19 90.398929 42.755509
20 89.322430 44.961133
21 88.192126 47.139674
22 87.008699 49.289819
23 85.772861 51.410274
24 84.485357 53.499762
25 83.146961 55.557023
26 81.758481 57.580819
27 80.320753 59.569930
28 78.834643 61.523159
29 77.301045 63.439328
30 75.720885 65.317284
31 74.095113 67.155895
32 72.424708 68.954054
33 70.710678 70.710678
34 68.954054 72.424708
35 67.155895 74.095113
36 65.317284 75.720885
37 63.439328 77.301045
38 61.523159 78.834643
39 59.569930 80.320753
40 57.580819 81.758481
41 55.557023 83.146961
42 53.499762 84.485357
43 51.410274 85.772861
44 49.289819 87.008699
45 47.139674 88.192126
46 44.961133 89.322430
47 42.755509 90.398929
48 40.524131 91.420976
49 38.268343 92.387953
50 35.989504 93.299280
51 33.688985 94.154407
52 31.368174 94.952818
53 29.028468 95.694034
54 26.671276 96.377607
55 24.298018 97.003125
56 21.910124 97.570213
57 19.509032 98.078528
58 17.096189 98.527764
59 14.673047 98.917651
60 12.241068 99.247953
61 9.801714 99.518473
62 7.356456 99.729046
63 4.906767 99.879546
64 2.454123 99.969882
65 0.000000 100.000000
66 -2.454123 99.969882
67 -4.906767 99.879546
68 -7.356456 99.729046
69 -9.801714 99.518473
70 -12.241068 99.247953
71 -14.673047 98.917651
72 -17.096189 98.527764
73 -19.509032 98.078528
74 -21.910124 97.570213
75 -24.298018 97.003125
76 -26.671276 96.377607
77 -29.028468 95.694034
78 -31.368174 94.952818
79 -33.688985 94.154407
80 -35.989504 93.299280
81 -38.268343 92.387953
82 -40.524131 91.420976
83 -42.755509 90.398929
84 -44.961133 89.322430
85 -47.139674 88.192126
86 -49.289819 87.008699
87 -51.410274 85.772861
88 -53.499762 84.485357
89 -55.557023 83.146961
90 -57.580819 81.758481
91 -59.569930 80.320753
92 -61.523159 78.834643
93 -63.439328 77.301045
94 -65.317284 75.720885
95 -67.155895 74.095113
96 -68.954054 72.424708
97 -70.710678 70.710678
98 -72.424708 68.954054
99 -74.095113 67.155895
100 -75.720885 65.317284
101 -77.301045 63.439328
102 -78.834643 61.523159
103 -80.320753 59.569930
104 -81.758481 57.580819
105 -83.146961 55.557023
106 -84.485357 53.499762
107 -85.772861 51.410274
108 -87.008699 49.289819
109 -88.192126 47.139674
110 -89.322430 44.961133
111 -90.398929 42.755509
112 -91.420976 40.524131
113 -92.387953 38.268343
114 -93.299280 35.989504
115 -94.154407 33.688985
116 -94.952818 31.368174
117 -95.694034 29.028468
118 -96.377607 26.671276
119 -97.003125 24.298018
120 -97.570213 21.910124
121 -98.078528 19.509032
122 -98.527764 17.096189
123 -98.917651 14.673047
124 -99.247953 12.241068
125 -99.518473 9.801714
126 -99.729046 7.356456
127 -99.879546 4.906767
128 -99.969882 2.454123
129 -100.000000 0.000000
130 -99.969882 -2.454123
131 -99.879546 -4.906767
132 -99.729046 -7.356456
133 -99.518473 -9.801714
134 -99.247953 -12.241068
135 -98.917651 -14.673047
136 -98.527764 -17.096189
137 -98.078528 -19.509032
138 -97.570213 -21.910124
139 -97.003125 -24.298018
140 -96.377607 -26.671276
141 -95.694034 -29.028468
142 -94.952818 -31.368174
143 -94.154407 -33.688985
144 -93.299280 -35.989504
145 -92.387953 -38.268343
146 -91.420976 -40.524131
147 -90.398929 -42.755509
148 -89.322430 -44.961133
149 -88.192126 -47.139674
150 -87.008699 -49.289819
151 -85.772861 -51.410274
152 -84.485357 -53.499762
153 -83.146961 -55.557023
154 -81.758481 -57.580819
155 -80.320753 -59.569930
156 -78.834643 -61.523159
157 -77.301045 -63.439328
158 -75.720885 -65.317284
159 -74.095113 -67.155895
160 -72.424708 -68.954054
161 -70.710678 -70.710678
162 -68.954054 -72.424708
163 -67.155895 -74.095113
164 -65.317284 -75.720885
165 -63.439328 -77.301045
166 -61.523159 -78.834643
167 -59.569930 -80.320753
168 -57.580819 -81.758481
169 -55.557023 -83.146961
170 -53.499762 -84.485357
171 -51.410274 -85.772861
172 -49.289819 -87.008699
173 -47.139674 -88.192126
174 -44.961133 -89.322430
175 -42.755509 -90.398929
176 -40.524131 -91.420976
177 -38.268343 -92.387953
178 -35.989504 -93.299280
179 -33.688985 -94.154407
180 -31.368174 -94.952818
181 -29.028468 -95.694034
182 -26.671276 -96.377607
183 -24.298018 -97.003125
184 -21.910124 -97.570213
185 -19.509032 -98.078528
186 -17.096189 -98.527764
187 -14.673047 -98.917651
188 -12.241068 -99.247953
189 -9.801714 -99.518473
190 -7.356456 -99.729046
191 -4.906767 -99.879546
192 -2.454123 -99.969882
193 -0.000000 -100.000000
194 2.454123 -99.969882
195 4.906767 -99.879546
196 7.356456 -99.729046
197 9.801714 -99.518473
198 12.241068 -99.247953
199 14.673047 -98.917651
200 17.096189 -98.527764
201 19.509032 -98.078528
202 21.910124 -97.570213
203 24.298018 -97.003125
204 26.671276 -96.377607
205 29.028468 -95.694034
206 31.368174 -94.952818
207 33.688985 -94.154407
208 35.989504 -93.299280
209 38.268343 -92.387953
210 40.524131 -91.420976
211 42.755509 -90.398929
212 44.961133 -89.322430
213 47.139674 -88.192126
214 49.289819 -87.008699
215 51.410274 -85.772861
216 53.499762 -84.485357
217 55.557023 -83.146961
218 57.580819 -81.758481
219 59.569930 -80.320753
220 61.523159 -78.834643
221 63.439328 -77.301045
222 65.317284 -75.720885
223 67.155895 -74.095113
224 68.954054 -72.424708
225 70.710678 -70.710678
226 72.424708 -68.954054
227 74.095113 -67.155895
228 75.720885 -65.317284
229 77.301045 -63.439328
230 78.834643 -61.523159
231 80.320753 -59.569930
232 81.758481 -57.580819
233 83.146961 -55.557023
234 84.485357 -53.499762
235 85.772861 -51.410274
236 87.008699 -49.289819
237 88.192126 -47.139674
238 89.322430 -44.961133
239 90.398929 -42.755509
240 91.420976 -40.524131
241 92.387953 -38.268343
242 93.299280 -35.989504
243 94.154407 -33.688985
244 94.952818 -31.368174
245 95.694034 -29.028468
246 96.377607 -26.671276
247 97.003125 -24.298018
248 97.570213 -21.910124
249 98.078528 -19.509032
250 98.527764 -17.096189
251 98.917651 -14.673047
252 99.247953 -12.241068
253 99.518473 -9.801714
254 99.729046 -7.356456
255 99.879546 -4.906767
256 99.969882 -2.454123
EOF
